PROBLEM NAME: eil51_n14
KNAPSACK DATA TYPE: uncorrelated, similar weights
DIMENSION: 14
NUMBER OF ITEMS: 13
CAPACITY OF KNAPSACK: 118239
MIN SPEED: 0.1
MAX SPEED: 1
RENTING RATIO: 1.08
EDGE_WEIGHT_TYPE: CEIL_2D
NODE_COORD_SECTION	(INDEX, X, Y):
1	40	30
2	21	47
3	52	33
4	42	41
5	5	25
6	36	16
7	17	33
8	42	57
9	58	27
10	63	69
11	32	22
12	45	35
13	32	39
14	25	32
ITEMS SECTION	(INDEX, PROFIT, WEIGHT, ASSIGNED NODE NUMBER):
1	955	100045	6
2	901	100058	11
3	845	100014	14
4	795	100036	7
5	485	100093	5
6	421	100091	2
7	326	100005	13
8	322	100048	4
9	252	100021	8
10	248	100015	10
11	122	100066	9
12	43	100056	3
13	9	100090	12
